p cnf 1840 2764
-920 459 0
-920 460 0
920 -459 -460 0
-921 455 0
-921 456 0
921 -455 -456 0
-922 451 0
-922 452 0
922 -451 -452 0
-923 447 0
-923 448 0
923 -447 -448 0
-924 443 0
-924 444 0
924 -443 -444 0
-925 441 0
-925 442 0
925 -441 -442 0
-926 433 0
-926 434 0
926 -433 -434 0
-927 429 0
-927 430 0
927 -429 -430 0
-928 421 0
-928 422 0
928 -421 -422 0
-929 419 0
-929 420 0
929 -419 -420 0
-930 417 0
-930 418 0
930 -417 -418 0
-931 415 0
-931 416 0
931 -415 -416 0
-932 407 0
-932 408 0
932 -407 -408 0
-933 405 0
-933 406 0
933 -405 -406 0
-934 393 0
-934 394 0
934 -393 -394 0
-935 383 0
-935 384 0
935 -383 -384 0
-936 379 0
-936 380 0
936 -379 -380 0
-937 375 0
-937 376 0
937 -375 -376 0
-938 367 0
-938 368 0
938 -367 -368 0
-939 361 0
-939 362 0
939 -361 -362 0
-940 357 0
-940 358 0
940 -357 -358 0
-941 349 0
-941 350 0
941 -349 -350 0
-942 343 0
-942 344 0
942 -343 -344 0
-943 335 0
-943 336 0
943 -335 -336 0
-944 333 0
-944 334 0
944 -333 -334 0
-945 331 0
-945 332 0
945 -331 -332 0
-946 321 0
-946 322 0
946 -321 -322 0
-947 319 0
-947 320 0
947 -319 -320 0
-948 317 0
-948 318 0
948 -317 -318 0
-949 313 0
-949 314 0
949 -313 -314 0
-950 299 0
-950 300 0
950 -299 -300 0
-951 293 0
-951 294 0
951 -293 -294 0
-952 287 0
-952 288 0
952 -287 -288 0
-953 283 0
-953 284 0
953 -283 -284 0
-954 279 0
-954 280 0
954 -279 -280 0
-955 277 0
-955 278 0
955 -277 -278 0
-956 271 0
-956 272 0
956 -271 -272 0
-957 269 0
-957 270 0
957 -269 -270 0
-958 265 0
-958 266 0
958 -265 -266 0
-959 263 0
-959 264 0
959 -263 -264 0
-960 261 0
-960 262 0
960 -261 -262 0
-961 257 0
-961 258 0
961 -257 -258 0
-962 255 0
-962 256 0
962 -255 -256 0
-963 243 0
-963 244 0
963 -243 -244 0
-964 241 0
-964 242 0
964 -241 -242 0
-965 235 0
-965 236 0
965 -235 -236 0
-966 231 0
-966 232 0
966 -231 -232 0
-967 229 0
-967 230 0
967 -229 -230 0
-968 227 0
-968 228 0
968 -227 -228 0
-969 225 0
-969 226 0
969 -225 -226 0
-970 221 0
-970 222 0
970 -221 -222 0
-971 215 0
-971 216 0
971 -215 -216 0
-972 213 0
-972 214 0
972 -213 -214 0
-973 209 0
-973 210 0
973 -209 -210 0
-974 207 0
-974 208 0
974 -207 -208 0
-975 203 0
-975 204 0
975 -203 -204 0
-976 201 0
-976 202 0
976 -201 -202 0
-977 195 0
-977 196 0
977 -195 -196 0
-978 191 0
-978 192 0
978 -191 -192 0
-979 187 0
-979 188 0
979 -187 -188 0
-980 181 0
-980 182 0
980 -181 -182 0
-981 171 0
-981 172 0
981 -171 -172 0
-982 169 0
-982 170 0
982 -169 -170 0
-983 165 0
-983 166 0
983 -165 -166 0
-984 163 0
-984 164 0
984 -163 -164 0
-985 161 0
-985 162 0
985 -161 -162 0
-986 159 0
-986 160 0
986 -159 -160 0
-987 157 0
-987 158 0
987 -157 -158 0
-988 155 0
-988 156 0
988 -155 -156 0
-989 153 0
-989 154 0
989 -153 -154 0
-990 145 0
-990 146 0
990 -145 -146 0
-991 141 0
-991 142 0
991 -141 -142 0
-992 139 0
-992 140 0
992 -139 -140 0
-993 137 0
-993 138 0
993 -137 -138 0
-994 133 0
-994 134 0
994 -133 -134 0
-995 121 0
-995 122 0
995 -121 -122 0
-996 115 0
-996 116 0
996 -115 -116 0
-997 111 0
-997 112 0
997 -111 -112 0
-998 103 0
-998 104 0
998 -103 -104 0
-999 97 0
-999 98 0
999 -97 -98 0
-1000 93 0
-1000 94 0
1000 -93 -94 0
-1001 91 0
-1001 92 0
1001 -91 -92 0
-1002 89 0
-1002 90 0
1002 -89 -90 0
-1003 83 0
-1003 84 0
1003 -83 -84 0
-1004 79 0
-1004 80 0
1004 -79 -80 0
-1005 73 0
-1005 74 0
1005 -73 -74 0
-1006 71 0
-1006 72 0
1006 -71 -72 0
-1007 65 0
-1007 66 0
1007 -65 -66 0
-1008 63 0
-1008 64 0
1008 -63 -64 0
-1009 61 0
-1009 62 0
1009 -61 -62 0
-1010 59 0
-1010 60 0
1010 -59 -60 0
-1011 57 0
-1011 58 0
1011 -57 -58 0
-1012 55 0
-1012 56 0
1012 -55 -56 0
-1013 53 0
-1013 54 0
1013 -53 -54 0
-1014 49 0
-1014 50 0
1014 -49 -50 0
-1015 33 0
-1015 34 0
1015 -33 -34 0
-1016 29 0
-1016 30 0
1016 -29 -30 0
-1017 27 0
-1017 28 0
1017 -27 -28 0
-1018 21 0
-1018 22 0
1018 -21 -22 0
-1019 17 0
-1019 18 0
1019 -17 -18 0
-1020 15 0
-1020 16 0
1020 -15 -16 0
-1021 9 0
-1021 10 0
1021 -9 -10 0
-1022 7 0
-1022 8 0
1022 -7 -8 0
-1023 5 0
-1023 6 0
1023 -5 -6 0
-1024 3 0
-1024 4 0
1024 -3 -4 0
-1025 1 0
-1025 2 0
1025 -1 -2 0
-1026 -1024 0
-1026 -1025 0
1026 1024 1025 0
-1027 -1023 0
-1027 1026 0
1027 1023 -1026 0
-1028 -1022 0
-1028 1027 0
1028 1022 -1027 0
-1029 -1021 0
-1029 1028 0
1029 1021 -1028 0
-1030 11 0
-1030 12 0
1030 -11 -12 0
-1031 1029 0
-1031 -1030 0
1031 -1029 1030 0
-1032 13 0
-1032 14 0
1032 -13 -14 0
-1033 1031 0
-1033 -1032 0
1033 -1031 1032 0
-1034 -1020 0
-1034 1033 0
1034 1020 -1033 0
-1035 -1019 0
-1035 1034 0
1035 1019 -1034 0
-1036 19 0
-1036 20 0
1036 -19 -20 0
-1037 1035 0
-1037 -1036 0
1037 -1035 1036 0
-1038 -1018 0
-1038 1037 0
1038 1018 -1037 0
-1039 23 0
-1039 24 0
1039 -23 -24 0
-1040 1038 0
-1040 -1039 0
1040 -1038 1039 0
-1041 25 0
-1041 26 0
1041 -25 -26 0
-1042 1040 0
-1042 -1041 0
1042 -1040 1041 0
-1043 -1017 0
-1043 1042 0
1043 1017 -1042 0
-1044 -1016 0
-1044 1043 0
1044 1016 -1043 0
-1045 31 0
-1045 32 0
1045 -31 -32 0
-1046 1044 0
-1046 -1045 0
1046 -1044 1045 0
-1047 -1015 0
-1047 1046 0
1047 1015 -1046 0
-1048 35 0
-1048 36 0
1048 -35 -36 0
-1049 1047 0
-1049 -1048 0
1049 -1047 1048 0
-1050 37 0
-1050 38 0
1050 -37 -38 0
-1051 1049 0
-1051 -1050 0
1051 -1049 1050 0
-1052 39 0
-1052 40 0
1052 -39 -40 0
-1053 1051 0
-1053 -1052 0
1053 -1051 1052 0
-1054 41 0
-1054 42 0
1054 -41 -42 0
-1055 1053 0
-1055 -1054 0
1055 -1053 1054 0
-1056 43 0
-1056 44 0
1056 -43 -44 0
-1057 1055 0
-1057 -1056 0
1057 -1055 1056 0
-1058 45 0
-1058 46 0
1058 -45 -46 0
-1059 1057 0
-1059 -1058 0
1059 -1057 1058 0
-1060 47 0
-1060 48 0
1060 -47 -48 0
-1061 1059 0
-1061 -1060 0
1061 -1059 1060 0
-1062 -1014 0
-1062 1061 0
1062 1014 -1061 0
-1063 51 0
-1063 52 0
1063 -51 -52 0
-1064 1062 0
-1064 -1063 0
1064 -1062 1063 0
-1065 -1013 0
-1065 1064 0
1065 1013 -1064 0
-1066 -1012 0
-1066 1065 0
1066 1012 -1065 0
-1067 -1011 0
-1067 1066 0
1067 1011 -1066 0
-1068 -1010 0
-1068 1067 0
1068 1010 -1067 0
-1069 -1009 0
-1069 1068 0
1069 1009 -1068 0
-1070 -1008 0
-1070 1069 0
1070 1008 -1069 0
-1071 -1007 0
-1071 1070 0
1071 1007 -1070 0
-1072 67 0
-1072 68 0
1072 -67 -68 0
-1073 1071 0
-1073 -1072 0
1073 -1071 1072 0
-1074 69 0
-1074 70 0
1074 -69 -70 0
-1075 1073 0
-1075 -1074 0
1075 -1073 1074 0
-1076 -1006 0
-1076 1075 0
1076 1006 -1075 0
-1077 -1005 0
-1077 1076 0
1077 1005 -1076 0
-1078 75 0
-1078 76 0
1078 -75 -76 0
-1079 1077 0
-1079 -1078 0
1079 -1077 1078 0
-1080 77 0
-1080 78 0
1080 -77 -78 0
-1081 1079 0
-1081 -1080 0
1081 -1079 1080 0
-1082 -1004 0
-1082 1081 0
1082 1004 -1081 0
-1083 81 0
-1083 82 0
1083 -81 -82 0
-1084 1082 0
-1084 -1083 0
1084 -1082 1083 0
-1085 -1003 0
-1085 1084 0
1085 1003 -1084 0
-1086 85 0
-1086 86 0
1086 -85 -86 0
-1087 1085 0
-1087 -1086 0
1087 -1085 1086 0
-1088 87 0
-1088 88 0
1088 -87 -88 0
-1089 1087 0
-1089 -1088 0
1089 -1087 1088 0
-1090 -1002 0
-1090 1089 0
1090 1002 -1089 0
-1091 -1001 0
-1091 1090 0
1091 1001 -1090 0
-1092 -1000 0
-1092 1091 0
1092 1000 -1091 0
-1093 95 0
-1093 96 0
1093 -95 -96 0
-1094 1092 0
-1094 -1093 0
1094 -1092 1093 0
-1095 -999 0
-1095 1094 0
1095 999 -1094 0
-1096 99 0
-1096 100 0
1096 -99 -100 0
-1097 1095 0
-1097 -1096 0
1097 -1095 1096 0
-1098 101 0
-1098 102 0
1098 -101 -102 0
-1099 1097 0
-1099 -1098 0
1099 -1097 1098 0
-1100 -998 0
-1100 1099 0
1100 998 -1099 0
-1101 105 0
-1101 106 0
1101 -105 -106 0
-1102 1100 0
-1102 -1101 0
1102 -1100 1101 0
-1103 107 0
-1103 108 0
1103 -107 -108 0
-1104 1102 0
-1104 -1103 0
1104 -1102 1103 0
-1105 109 0
-1105 110 0
1105 -109 -110 0
-1106 1104 0
-1106 -1105 0
1106 -1104 1105 0
-1107 -997 0
-1107 1106 0
1107 997 -1106 0
-1108 113 0
-1108 114 0
1108 -113 -114 0
-1109 1107 0
-1109 -1108 0
1109 -1107 1108 0
-1110 -996 0
-1110 1109 0
1110 996 -1109 0
-1111 117 0
-1111 118 0
1111 -117 -118 0
-1112 1110 0
-1112 -1111 0
1112 -1110 1111 0
-1113 119 0
-1113 120 0
1113 -119 -120 0
-1114 1112 0
-1114 -1113 0
1114 -1112 1113 0
-1115 -995 0
-1115 1114 0
1115 995 -1114 0
-1116 123 0
-1116 124 0
1116 -123 -124 0
-1117 1115 0
-1117 -1116 0
1117 -1115 1116 0
-1118 125 0
-1118 126 0
1118 -125 -126 0
-1119 1117 0
-1119 -1118 0
1119 -1117 1118 0
-1120 127 0
-1120 128 0
1120 -127 -128 0
-1121 1119 0
-1121 -1120 0
1121 -1119 1120 0
-1122 129 0
-1122 130 0
1122 -129 -130 0
-1123 1121 0
-1123 -1122 0
1123 -1121 1122 0
-1124 131 0
-1124 132 0
1124 -131 -132 0
-1125 1123 0
-1125 -1124 0
1125 -1123 1124 0
-1126 -994 0
-1126 1125 0
1126 994 -1125 0
-1127 135 0
-1127 136 0
1127 -135 -136 0
-1128 1126 0
-1128 -1127 0
1128 -1126 1127 0
-1129 -993 0
-1129 1128 0
1129 993 -1128 0
-1130 -992 0
-1130 1129 0
1130 992 -1129 0
-1131 -991 0
-1131 1130 0
1131 991 -1130 0
-1132 143 0
-1132 144 0
1132 -143 -144 0
-1133 1131 0
-1133 -1132 0
1133 -1131 1132 0
-1134 -990 0
-1134 1133 0
1134 990 -1133 0
-1135 147 0
-1135 148 0
1135 -147 -148 0
-1136 1134 0
-1136 -1135 0
1136 -1134 1135 0
-1137 149 0
-1137 150 0
1137 -149 -150 0
-1138 1136 0
-1138 -1137 0
1138 -1136 1137 0
-1139 151 0
-1139 152 0
1139 -151 -152 0
-1140 1138 0
-1140 -1139 0
1140 -1138 1139 0
-1141 -989 0
-1141 1140 0
1141 989 -1140 0
-1142 -988 0
-1142 1141 0
1142 988 -1141 0
-1143 -987 0
-1143 1142 0
1143 987 -1142 0
-1144 -986 0
-1144 1143 0
1144 986 -1143 0
-1145 -985 0
-1145 1144 0
1145 985 -1144 0
-1146 -984 0
-1146 1145 0
1146 984 -1145 0
-1147 -983 0
-1147 1146 0
1147 983 -1146 0
-1148 167 0
-1148 168 0
1148 -167 -168 0
-1149 1147 0
-1149 -1148 0
1149 -1147 1148 0
-1150 -982 0
-1150 1149 0
1150 982 -1149 0
-1151 -981 0
-1151 1150 0
1151 981 -1150 0
-1152 173 0
-1152 174 0
1152 -173 -174 0
-1153 1151 0
-1153 -1152 0
1153 -1151 1152 0
-1154 175 0
-1154 176 0
1154 -175 -176 0
-1155 1153 0
-1155 -1154 0
1155 -1153 1154 0
-1156 177 0
-1156 178 0
1156 -177 -178 0
-1157 1155 0
-1157 -1156 0
1157 -1155 1156 0
-1158 179 0
-1158 180 0
1158 -179 -180 0
-1159 1157 0
-1159 -1158 0
1159 -1157 1158 0
-1160 -980 0
-1160 1159 0
1160 980 -1159 0
-1161 183 0
-1161 184 0
1161 -183 -184 0
-1162 1160 0
-1162 -1161 0
1162 -1160 1161 0
-1163 185 0
-1163 186 0
1163 -185 -186 0
-1164 1162 0
-1164 -1163 0
1164 -1162 1163 0
-1165 -979 0
-1165 1164 0
1165 979 -1164 0
-1166 189 0
-1166 190 0
1166 -189 -190 0
-1167 1165 0
-1167 -1166 0
1167 -1165 1166 0
-1168 -978 0
-1168 1167 0
1168 978 -1167 0
-1169 193 0
-1169 194 0
1169 -193 -194 0
-1170 1168 0
-1170 -1169 0
1170 -1168 1169 0
-1171 -977 0
-1171 1170 0
1171 977 -1170 0
-1172 197 0
-1172 198 0
1172 -197 -198 0
-1173 1171 0
-1173 -1172 0
1173 -1171 1172 0
-1174 199 0
-1174 200 0
1174 -199 -200 0
-1175 1173 0
-1175 -1174 0
1175 -1173 1174 0
-1176 -976 0
-1176 1175 0
1176 976 -1175 0
-1177 -975 0
-1177 1176 0
1177 975 -1176 0
-1178 205 0
-1178 206 0
1178 -205 -206 0
-1179 1177 0
-1179 -1178 0
1179 -1177 1178 0
-1180 -974 0
-1180 1179 0
1180 974 -1179 0
-1181 -973 0
-1181 1180 0
1181 973 -1180 0
-1182 211 0
-1182 212 0
1182 -211 -212 0
-1183 1181 0
-1183 -1182 0
1183 -1181 1182 0
-1184 -972 0
-1184 1183 0
1184 972 -1183 0
-1185 -971 0
-1185 1184 0
1185 971 -1184 0
-1186 217 0
-1186 218 0
1186 -217 -218 0
-1187 1185 0
-1187 -1186 0
1187 -1185 1186 0
-1188 219 0
-1188 220 0
1188 -219 -220 0
-1189 1187 0
-1189 -1188 0
1189 -1187 1188 0
-1190 -970 0
-1190 1189 0
1190 970 -1189 0
-1191 223 0
-1191 224 0
1191 -223 -224 0
-1192 1190 0
-1192 -1191 0
1192 -1190 1191 0
-1193 -969 0
-1193 1192 0
1193 969 -1192 0
-1194 -968 0
-1194 1193 0
1194 968 -1193 0
-1195 -967 0
-1195 1194 0
1195 967 -1194 0
-1196 -966 0
-1196 1195 0
1196 966 -1195 0
-1197 233 0
-1197 234 0
1197 -233 -234 0
-1198 1196 0
-1198 -1197 0
1198 -1196 1197 0
-1199 -965 0
-1199 1198 0
1199 965 -1198 0
-1200 237 0
-1200 238 0
1200 -237 -238 0
-1201 1199 0
-1201 -1200 0
1201 -1199 1200 0
-1202 239 0
-1202 240 0
1202 -239 -240 0
-1203 1201 0
-1203 -1202 0
1203 -1201 1202 0
-1204 -964 0
-1204 1203 0
1204 964 -1203 0
-1205 -963 0
-1205 1204 0
1205 963 -1204 0
-1206 245 0
-1206 246 0
1206 -245 -246 0
-1207 1205 0
-1207 -1206 0
1207 -1205 1206 0
-1208 247 0
-1208 248 0
1208 -247 -248 0
-1209 1207 0
-1209 -1208 0
1209 -1207 1208 0
-1210 249 0
-1210 250 0
1210 -249 -250 0
-1211 1209 0
-1211 -1210 0
1211 -1209 1210 0
-1212 251 0
-1212 252 0
1212 -251 -252 0
-1213 1211 0
-1213 -1212 0
1213 -1211 1212 0
-1214 253 0
-1214 254 0
1214 -253 -254 0
-1215 1213 0
-1215 -1214 0
1215 -1213 1214 0
-1216 -962 0
-1216 1215 0
1216 962 -1215 0
-1217 -961 0
-1217 1216 0
1217 961 -1216 0
-1218 259 0
-1218 260 0
1218 -259 -260 0
-1219 1217 0
-1219 -1218 0
1219 -1217 1218 0
-1220 -960 0
-1220 1219 0
1220 960 -1219 0
-1221 -959 0
-1221 1220 0
1221 959 -1220 0
-1222 -958 0
-1222 1221 0
1222 958 -1221 0
-1223 267 0
-1223 268 0
1223 -267 -268 0
-1224 1222 0
-1224 -1223 0
1224 -1222 1223 0
-1225 -957 0
-1225 1224 0
1225 957 -1224 0
-1226 -956 0
-1226 1225 0
1226 956 -1225 0
-1227 273 0
-1227 274 0
1227 -273 -274 0
-1228 1226 0
-1228 -1227 0
1228 -1226 1227 0
-1229 275 0
-1229 276 0
1229 -275 -276 0
-1230 1228 0
-1230 -1229 0
1230 -1228 1229 0
-1231 -955 0
-1231 1230 0
1231 955 -1230 0
-1232 -954 0
-1232 1231 0
1232 954 -1231 0
-1233 281 0
-1233 282 0
1233 -281 -282 0
-1234 1232 0
-1234 -1233 0
1234 -1232 1233 0
-1235 -953 0
-1235 1234 0
1235 953 -1234 0
-1236 285 0
-1236 286 0
1236 -285 -286 0
-1237 1235 0
-1237 -1236 0
1237 -1235 1236 0
-1238 -952 0
-1238 1237 0
1238 952 -1237 0
-1239 289 0
-1239 290 0
1239 -289 -290 0
-1240 1238 0
-1240 -1239 0
1240 -1238 1239 0
-1241 291 0
-1241 292 0
1241 -291 -292 0
-1242 1240 0
-1242 -1241 0
1242 -1240 1241 0
-1243 -951 0
-1243 1242 0
1243 951 -1242 0
-1244 295 0
-1244 296 0
1244 -295 -296 0
-1245 1243 0
-1245 -1244 0
1245 -1243 1244 0
-1246 297 0
-1246 298 0
1246 -297 -298 0
-1247 1245 0
-1247 -1246 0
1247 -1245 1246 0
-1248 -950 0
-1248 1247 0
1248 950 -1247 0
-1249 301 0
-1249 302 0
1249 -301 -302 0
-1250 1248 0
-1250 -1249 0
1250 -1248 1249 0
-1251 303 0
-1251 304 0
1251 -303 -304 0
-1252 1250 0
-1252 -1251 0
1252 -1250 1251 0
-1253 305 0
-1253 306 0
1253 -305 -306 0
-1254 1252 0
-1254 -1253 0
1254 -1252 1253 0
-1255 307 0
-1255 308 0
1255 -307 -308 0
-1256 1254 0
-1256 -1255 0
1256 -1254 1255 0
-1257 309 0
-1257 310 0
1257 -309 -310 0
-1258 1256 0
-1258 -1257 0
1258 -1256 1257 0
-1259 311 0
-1259 312 0
1259 -311 -312 0
-1260 1258 0
-1260 -1259 0
1260 -1258 1259 0
-1261 -949 0
-1261 1260 0
1261 949 -1260 0
-1262 315 0
-1262 316 0
1262 -315 -316 0
-1263 1261 0
-1263 -1262 0
1263 -1261 1262 0
-1264 -948 0
-1264 1263 0
1264 948 -1263 0
-1265 -947 0
-1265 1264 0
1265 947 -1264 0
-1266 -946 0
-1266 1265 0
1266 946 -1265 0
-1267 323 0
-1267 324 0
1267 -323 -324 0
-1268 1266 0
-1268 -1267 0
1268 -1266 1267 0
-1269 325 0
-1269 326 0
1269 -325 -326 0
-1270 1268 0
-1270 -1269 0
1270 -1268 1269 0
-1271 327 0
-1271 328 0
1271 -327 -328 0
-1272 1270 0
-1272 -1271 0
1272 -1270 1271 0
-1273 329 0
-1273 330 0
1273 -329 -330 0
-1274 1272 0
-1274 -1273 0
1274 -1272 1273 0
-1275 -945 0
-1275 1274 0
1275 945 -1274 0
-1276 -944 0
-1276 1275 0
1276 944 -1275 0
-1277 -943 0
-1277 1276 0
1277 943 -1276 0
-1278 337 0
-1278 338 0
1278 -337 -338 0
-1279 1277 0
-1279 -1278 0
1279 -1277 1278 0
-1280 339 0
-1280 340 0
1280 -339 -340 0
-1281 1279 0
-1281 -1280 0
1281 -1279 1280 0
-1282 341 0
-1282 342 0
1282 -341 -342 0
-1283 1281 0
-1283 -1282 0
1283 -1281 1282 0
-1284 -942 0
-1284 1283 0
1284 942 -1283 0
-1285 345 0
-1285 346 0
1285 -345 -346 0
-1286 1284 0
-1286 -1285 0
1286 -1284 1285 0
-1287 347 0
-1287 348 0
1287 -347 -348 0
-1288 1286 0
-1288 -1287 0
1288 -1286 1287 0
-1289 -941 0
-1289 1288 0
1289 941 -1288 0
-1290 351 0
-1290 352 0
1290 -351 -352 0
-1291 1289 0
-1291 -1290 0
1291 -1289 1290 0
-1292 353 0
-1292 354 0
1292 -353 -354 0
-1293 1291 0
-1293 -1292 0
1293 -1291 1292 0
-1294 355 0
-1294 356 0
1294 -355 -356 0
-1295 1293 0
-1295 -1294 0
1295 -1293 1294 0
-1296 -940 0
-1296 1295 0
1296 940 -1295 0
-1297 359 0
-1297 360 0
1297 -359 -360 0
-1298 1296 0
-1298 -1297 0
1298 -1296 1297 0
-1299 -939 0
-1299 1298 0
1299 939 -1298 0
-1300 363 0
-1300 364 0
1300 -363 -364 0
-1301 1299 0
-1301 -1300 0
1301 -1299 1300 0
-1302 365 0
-1302 366 0
1302 -365 -366 0
-1303 1301 0
-1303 -1302 0
1303 -1301 1302 0
-1304 -938 0
-1304 1303 0
1304 938 -1303 0
-1305 369 0
-1305 370 0
1305 -369 -370 0
-1306 1304 0
-1306 -1305 0
1306 -1304 1305 0
-1307 371 0
-1307 372 0
1307 -371 -372 0
-1308 1306 0
-1308 -1307 0
1308 -1306 1307 0
-1309 373 0
-1309 374 0
1309 -373 -374 0
-1310 1308 0
-1310 -1309 0
1310 -1308 1309 0
-1311 -937 0
-1311 1310 0
1311 937 -1310 0
-1312 377 0
-1312 378 0
1312 -377 -378 0
-1313 1311 0
-1313 -1312 0
1313 -1311 1312 0
-1314 -936 0
-1314 1313 0
1314 936 -1313 0
-1315 381 0
-1315 382 0
1315 -381 -382 0
-1316 1314 0
-1316 -1315 0
1316 -1314 1315 0
-1317 -935 0
-1317 1316 0
1317 935 -1316 0
-1318 385 0
-1318 386 0
1318 -385 -386 0
-1319 1317 0
-1319 -1318 0
1319 -1317 1318 0
-1320 387 0
-1320 388 0
1320 -387 -388 0
-1321 1319 0
-1321 -1320 0
1321 -1319 1320 0
-1322 389 0
-1322 390 0
1322 -389 -390 0
-1323 1321 0
-1323 -1322 0
1323 -1321 1322 0
-1324 391 0
-1324 392 0
1324 -391 -392 0
-1325 1323 0
-1325 -1324 0
1325 -1323 1324 0
-1326 -934 0
-1326 1325 0
1326 934 -1325 0
-1327 395 0
-1327 396 0
1327 -395 -396 0
-1328 1326 0
-1328 -1327 0
1328 -1326 1327 0
-1329 397 0
-1329 398 0
1329 -397 -398 0
-1330 1328 0
-1330 -1329 0
1330 -1328 1329 0
-1331 399 0
-1331 400 0
1331 -399 -400 0
-1332 1330 0
-1332 -1331 0
1332 -1330 1331 0
-1333 401 0
-1333 402 0
1333 -401 -402 0
-1334 1332 0
-1334 -1333 0
1334 -1332 1333 0
-1335 403 0
-1335 404 0
1335 -403 -404 0
-1336 1334 0
-1336 -1335 0
1336 -1334 1335 0
-1337 -933 0
-1337 1336 0
1337 933 -1336 0
-1338 -932 0
-1338 1337 0
1338 932 -1337 0
-1339 409 0
-1339 410 0
1339 -409 -410 0
-1340 1338 0
-1340 -1339 0
1340 -1338 1339 0
-1341 411 0
-1341 412 0
1341 -411 -412 0
-1342 1340 0
-1342 -1341 0
1342 -1340 1341 0
-1343 413 0
-1343 414 0
1343 -413 -414 0
-1344 1342 0
-1344 -1343 0
1344 -1342 1343 0
-1345 -931 0
-1345 1344 0
1345 931 -1344 0
-1346 -930 0
-1346 1345 0
1346 930 -1345 0
-1347 -929 0
-1347 1346 0
1347 929 -1346 0
-1348 -928 0
-1348 1347 0
1348 928 -1347 0
-1349 423 0
-1349 424 0
1349 -423 -424 0
-1350 1348 0
-1350 -1349 0
1350 -1348 1349 0
-1351 425 0
-1351 426 0
1351 -425 -426 0
-1352 1350 0
-1352 -1351 0
1352 -1350 1351 0
-1353 427 0
-1353 428 0
1353 -427 -428 0
-1354 1352 0
-1354 -1353 0
1354 -1352 1353 0
-1355 -927 0
-1355 1354 0
1355 927 -1354 0
-1356 431 0
-1356 432 0
1356 -431 -432 0
-1357 1355 0
-1357 -1356 0
1357 -1355 1356 0
-1358 -926 0
-1358 1357 0
1358 926 -1357 0
-1359 435 0
-1359 436 0
1359 -435 -436 0
-1360 1358 0
-1360 -1359 0
1360 -1358 1359 0
-1361 437 0
-1361 438 0
1361 -437 -438 0
-1362 1360 0
-1362 -1361 0
1362 -1360 1361 0
-1363 439 0
-1363 440 0
1363 -439 -440 0
-1364 1362 0
-1364 -1363 0
1364 -1362 1363 0
-1365 -925 0
-1365 1364 0
1365 925 -1364 0
-1366 -924 0
-1366 1365 0
1366 924 -1365 0
-1367 445 0
-1367 446 0
1367 -445 -446 0
-1368 1366 0
-1368 -1367 0
1368 -1366 1367 0
-1369 -923 0
-1369 1368 0
1369 923 -1368 0
-1370 449 0
-1370 450 0
1370 -449 -450 0
-1371 1369 0
-1371 -1370 0
1371 -1369 1370 0
-1372 -922 0
-1372 1371 0
1372 922 -1371 0
-1373 453 0
-1373 454 0
1373 -453 -454 0
-1374 1372 0
-1374 -1373 0
1374 -1372 1373 0
-1375 -921 0
-1375 1374 0
1375 921 -1374 0
-1376 457 0
-1376 458 0
1376 -457 -458 0
-1377 1375 0
-1377 -1376 0
1377 -1375 1376 0
-1378 -920 0
-1378 1377 0
1378 920 -1377 0
-1379 919 0
-1379 -1378 0
1379 -919 1378 0
-1380 916 0
-1380 917 0
1380 -916 -917 0
-1381 914 0
-1381 915 0
1381 -914 -915 0
-1382 902 0
-1382 903 0
1382 -902 -903 0
-1383 896 0
-1383 897 0
1383 -896 -897 0
-1384 894 0
-1384 895 0
1384 -894 -895 0
-1385 886 0
-1385 887 0
1385 -886 -887 0
-1386 882 0
-1386 883 0
1386 -882 -883 0
-1387 872 0
-1387 873 0
1387 -872 -873 0
-1388 870 0
-1388 871 0
1388 -870 -871 0
-1389 866 0
-1389 867 0
1389 -866 -867 0
-1390 864 0
-1390 865 0
1390 -864 -865 0
-1391 862 0
-1391 863 0
1391 -862 -863 0
-1392 850 0
-1392 851 0
1392 -850 -851 0
-1393 842 0
-1393 843 0
1393 -842 -843 0
-1394 840 0
-1394 841 0
1394 -840 -841 0
-1395 838 0
-1395 839 0
1395 -838 -839 0
-1396 832 0
-1396 833 0
1396 -832 -833 0
-1397 824 0
-1397 825 0
1397 -824 -825 0
-1398 822 0
-1398 823 0
1398 -822 -823 0
-1399 820 0
-1399 821 0
1399 -820 -821 0
-1400 818 0
-1400 819 0
1400 -818 -819 0
-1401 814 0
-1401 815 0
1401 -814 -815 0
-1402 810 0
-1402 811 0
1402 -810 -811 0
-1403 808 0
-1403 809 0
1403 -808 -809 0
-1404 806 0
-1404 807 0
1404 -806 -807 0
-1405 798 0
-1405 799 0
1405 -798 -799 0
-1406 796 0
-1406 797 0
1406 -796 -797 0
-1407 792 0
-1407 793 0
1407 -792 -793 0
-1408 788 0
-1408 789 0
1408 -788 -789 0
-1409 772 0
-1409 773 0
1409 -772 -773 0
-1410 770 0
-1410 771 0
1410 -770 -771 0
-1411 740 0
-1411 741 0
1411 -740 -741 0
-1412 734 0
-1412 735 0
1412 -734 -735 0
-1413 732 0
-1413 733 0
1413 -732 -733 0
-1414 730 0
-1414 731 0
1414 -730 -731 0
-1415 728 0
-1415 729 0
1415 -728 -729 0
-1416 724 0
-1416 725 0
1416 -724 -725 0
-1417 718 0
-1417 719 0
1417 -718 -719 0
-1418 712 0
-1418 713 0
1418 -712 -713 0
-1419 708 0
-1419 709 0
1419 -708 -709 0
-1420 702 0
-1420 703 0
1420 -702 -703 0
-1421 698 0
-1421 699 0
1421 -698 -699 0
-1422 690 0
-1422 691 0
1422 -690 -691 0
-1423 688 0
-1423 689 0
1423 -688 -689 0
-1424 674 0
-1424 675 0
1424 -674 -675 0
-1425 672 0
-1425 673 0
1425 -672 -673 0
-1426 670 0
-1426 671 0
1426 -670 -671 0
-1427 660 0
-1427 661 0
1427 -660 -661 0
-1428 656 0
-1428 657 0
1428 -656 -657 0
-1429 654 0
-1429 655 0
1429 -654 -655 0
-1430 646 0
-1430 647 0
1430 -646 -647 0
-1431 642 0
-1431 643 0
1431 -642 -643 0
-1432 634 0
-1432 635 0
1432 -634 -635 0
-1433 628 0
-1433 629 0
1433 -628 -629 0
-1434 626 0
-1434 627 0
1434 -626 -627 0
-1435 624 0
-1435 625 0
1435 -624 -625 0
-1436 622 0
-1436 623 0
1436 -622 -623 0
-1437 620 0
-1437 621 0
1437 -620 -621 0
-1438 618 0
-1438 619 0
1438 -618 -619 0
-1439 612 0
-1439 613 0
1439 -612 -613 0
-1440 610 0
-1440 611 0
1440 -610 -611 0
-1441 608 0
-1441 609 0
1441 -608 -609 0
-1442 606 0
-1442 607 0
1442 -606 -607 0
-1443 604 0
-1443 605 0
1443 -604 -605 0
-1444 600 0
-1444 601 0
1444 -600 -601 0
-1445 596 0
-1445 597 0
1445 -596 -597 0
-1446 588 0
-1446 589 0
1446 -588 -589 0
-1447 582 0
-1447 583 0
1447 -582 -583 0
-1448 580 0
-1448 581 0
1448 -580 -581 0
-1449 578 0
-1449 579 0
1449 -578 -579 0
-1450 576 0
-1450 577 0
1450 -576 -577 0
-1451 574 0
-1451 575 0
1451 -574 -575 0
-1452 568 0
-1452 569 0
1452 -568 -569 0
-1453 564 0
-1453 565 0
1453 -564 -565 0
-1454 562 0
-1454 563 0
1454 -562 -563 0
-1455 558 0
-1455 559 0
1455 -558 -559 0
-1456 554 0
-1456 555 0
1456 -554 -555 0
-1457 552 0
-1457 553 0
1457 -552 -553 0
-1458 550 0
-1458 551 0
1458 -550 -551 0
-1459 542 0
-1459 543 0
1459 -542 -543 0
-1460 540 0
-1460 541 0
1460 -540 -541 0
-1461 538 0
-1461 539 0
1461 -538 -539 0
-1462 532 0
-1462 533 0
1462 -532 -533 0
-1463 526 0
-1463 527 0
1463 -526 -527 0
-1464 522 0
-1464 523 0
1464 -522 -523 0
-1465 518 0
-1465 519 0
1465 -518 -519 0
-1466 504 0
-1466 505 0
1466 -504 -505 0
-1467 502 0
-1467 503 0
1467 -502 -503 0
-1468 500 0
-1468 501 0
1468 -500 -501 0
-1469 498 0
-1469 499 0
1469 -498 -499 0
-1470 490 0
-1470 491 0
1470 -490 -491 0
-1471 484 0
-1471 485 0
1471 -484 -485 0
-1472 482 0
-1472 483 0
1472 -482 -483 0
-1473 474 0
-1473 475 0
1473 -474 -475 0
-1474 472 0
-1474 473 0
1474 -472 -473 0
-1475 468 0
-1475 469 0
1475 -468 -469 0
-1476 464 0
-1476 465 0
1476 -464 -465 0
-1477 462 0
-1477 463 0
1477 -462 -463 0
-1478 460 0
-1478 461 0
1478 -460 -461 0
-1479 -1477 0
-1479 -1478 0
1479 1477 1478 0
-1480 -1476 0
-1480 1479 0
1480 1476 -1479 0
-1481 466 0
-1481 467 0
1481 -466 -467 0
-1482 1480 0
-1482 -1481 0
1482 -1480 1481 0
-1483 -1475 0
-1483 1482 0
1483 1475 -1482 0
-1484 470 0
-1484 471 0
1484 -470 -471 0
-1485 1483 0
-1485 -1484 0
1485 -1483 1484 0
-1486 -1474 0
-1486 1485 0
1486 1474 -1485 0
-1487 -1473 0
-1487 1486 0
1487 1473 -1486 0
-1488 476 0
-1488 477 0
1488 -476 -477 0
-1489 1487 0
-1489 -1488 0
1489 -1487 1488 0
-1490 478 0
-1490 479 0
1490 -478 -479 0
-1491 1489 0
-1491 -1490 0
1491 -1489 1490 0
-1492 480 0
-1492 481 0
1492 -480 -481 0
-1493 1491 0
-1493 -1492 0
1493 -1491 1492 0
-1494 -1472 0
-1494 1493 0
1494 1472 -1493 0
-1495 -1471 0
-1495 1494 0
1495 1471 -1494 0
-1496 486 0
-1496 487 0
1496 -486 -487 0
-1497 1495 0
-1497 -1496 0
1497 -1495 1496 0
-1498 488 0
-1498 489 0
1498 -488 -489 0
-1499 1497 0
-1499 -1498 0
1499 -1497 1498 0
-1500 -1470 0
-1500 1499 0
1500 1470 -1499 0
-1501 492 0
-1501 493 0
1501 -492 -493 0
-1502 1500 0
-1502 -1501 0
1502 -1500 1501 0
-1503 494 0
-1503 495 0
1503 -494 -495 0
-1504 1502 0
-1504 -1503 0
1504 -1502 1503 0
-1505 496 0
-1505 497 0
1505 -496 -497 0
-1506 1504 0
-1506 -1505 0
1506 -1504 1505 0
-1507 -1469 0
-1507 1506 0
1507 1469 -1506 0
-1508 -1468 0
-1508 1507 0
1508 1468 -1507 0
-1509 -1467 0
-1509 1508 0
1509 1467 -1508 0
-1510 -1466 0
-1510 1509 0
1510 1466 -1509 0
-1511 506 0
-1511 507 0
1511 -506 -507 0
-1512 1510 0
-1512 -1511 0
1512 -1510 1511 0
-1513 508 0
-1513 509 0
1513 -508 -509 0
-1514 1512 0
-1514 -1513 0
1514 -1512 1513 0
-1515 510 0
-1515 511 0
1515 -510 -511 0
-1516 1514 0
-1516 -1515 0
1516 -1514 1515 0
-1517 512 0
-1517 513 0
1517 -512 -513 0
-1518 1516 0
-1518 -1517 0
1518 -1516 1517 0
-1519 514 0
-1519 515 0
1519 -514 -515 0
-1520 1518 0
-1520 -1519 0
1520 -1518 1519 0
-1521 516 0
-1521 517 0
1521 -516 -517 0
-1522 1520 0
-1522 -1521 0
1522 -1520 1521 0
-1523 -1465 0
-1523 1522 0
1523 1465 -1522 0
-1524 520 0
-1524 521 0
1524 -520 -521 0
-1525 1523 0
-1525 -1524 0
1525 -1523 1524 0
-1526 -1464 0
-1526 1525 0
1526 1464 -1525 0
-1527 524 0
-1527 525 0
1527 -524 -525 0
-1528 1526 0
-1528 -1527 0
1528 -1526 1527 0
-1529 -1463 0
-1529 1528 0
1529 1463 -1528 0
-1530 528 0
-1530 529 0
1530 -528 -529 0
-1531 1529 0
-1531 -1530 0
1531 -1529 1530 0
-1532 530 0
-1532 531 0
1532 -530 -531 0
-1533 1531 0
-1533 -1532 0
1533 -1531 1532 0
-1534 -1462 0
-1534 1533 0
1534 1462 -1533 0
-1535 534 0
-1535 535 0
1535 -534 -535 0
-1536 1534 0
-1536 -1535 0
1536 -1534 1535 0
-1537 536 0
-1537 537 0
1537 -536 -537 0
-1538 1536 0
-1538 -1537 0
1538 -1536 1537 0
-1539 -1461 0
-1539 1538 0
1539 1461 -1538 0
-1540 -1460 0
-1540 1539 0
1540 1460 -1539 0
-1541 -1459 0
-1541 1540 0
1541 1459 -1540 0
-1542 544 0
-1542 545 0
1542 -544 -545 0
-1543 1541 0
-1543 -1542 0
1543 -1541 1542 0
-1544 546 0
-1544 547 0
1544 -546 -547 0
-1545 1543 0
-1545 -1544 0
1545 -1543 1544 0
-1546 548 0
-1546 549 0
1546 -548 -549 0
-1547 1545 0
-1547 -1546 0
1547 -1545 1546 0
-1548 -1458 0
-1548 1547 0
1548 1458 -1547 0
-1549 -1457 0
-1549 1548 0
1549 1457 -1548 0
-1550 -1456 0
-1550 1549 0
1550 1456 -1549 0
-1551 556 0
-1551 557 0
1551 -556 -557 0
-1552 1550 0
-1552 -1551 0
1552 -1550 1551 0
-1553 -1455 0
-1553 1552 0
1553 1455 -1552 0
-1554 560 0
-1554 561 0
1554 -560 -561 0
-1555 1553 0
-1555 -1554 0
1555 -1553 1554 0
-1556 -1454 0
-1556 1555 0
1556 1454 -1555 0
-1557 -1453 0
-1557 1556 0
1557 1453 -1556 0
-1558 566 0
-1558 567 0
1558 -566 -567 0
-1559 1557 0
-1559 -1558 0
1559 -1557 1558 0
-1560 -1452 0
-1560 1559 0
1560 1452 -1559 0
-1561 570 0
-1561 571 0
1561 -570 -571 0
-1562 1560 0
-1562 -1561 0
1562 -1560 1561 0
-1563 572 0
-1563 573 0
1563 -572 -573 0
-1564 1562 0
-1564 -1563 0
1564 -1562 1563 0
-1565 -1451 0
-1565 1564 0
1565 1451 -1564 0
-1566 -1450 0
-1566 1565 0
1566 1450 -1565 0
-1567 -1449 0
-1567 1566 0
1567 1449 -1566 0
-1568 -1448 0
-1568 1567 0
1568 1448 -1567 0
-1569 -1447 0
-1569 1568 0
1569 1447 -1568 0
-1570 584 0
-1570 585 0
1570 -584 -585 0
-1571 1569 0
-1571 -1570 0
1571 -1569 1570 0
-1572 586 0
-1572 587 0
1572 -586 -587 0
-1573 1571 0
-1573 -1572 0
1573 -1571 1572 0
-1574 -1446 0
-1574 1573 0
1574 1446 -1573 0
-1575 590 0
-1575 591 0
1575 -590 -591 0
-1576 1574 0
-1576 -1575 0
1576 -1574 1575 0
-1577 592 0
-1577 593 0
1577 -592 -593 0
-1578 1576 0
-1578 -1577 0
1578 -1576 1577 0
-1579 594 0
-1579 595 0
1579 -594 -595 0
-1580 1578 0
-1580 -1579 0
1580 -1578 1579 0
-1581 -1445 0
-1581 1580 0
1581 1445 -1580 0
-1582 598 0
-1582 599 0
1582 -598 -599 0
-1583 1581 0
-1583 -1582 0
1583 -1581 1582 0
-1584 -1444 0
-1584 1583 0
1584 1444 -1583 0
-1585 602 0
-1585 603 0
1585 -602 -603 0
-1586 1584 0
-1586 -1585 0
1586 -1584 1585 0
-1587 -1443 0
-1587 1586 0
1587 1443 -1586 0
-1588 -1442 0
-1588 1587 0
1588 1442 -1587 0
-1589 -1441 0
-1589 1588 0
1589 1441 -1588 0
-1590 -1440 0
-1590 1589 0
1590 1440 -1589 0
-1591 -1439 0
-1591 1590 0
1591 1439 -1590 0
-1592 614 0
-1592 615 0
1592 -614 -615 0
-1593 1591 0
-1593 -1592 0
1593 -1591 1592 0
-1594 616 0
-1594 617 0
1594 -616 -617 0
-1595 1593 0
-1595 -1594 0
1595 -1593 1594 0
-1596 -1438 0
-1596 1595 0
1596 1438 -1595 0
-1597 -1437 0
-1597 1596 0
1597 1437 -1596 0
-1598 -1436 0
-1598 1597 0
1598 1436 -1597 0
-1599 -1435 0
-1599 1598 0
1599 1435 -1598 0
-1600 -1434 0
-1600 1599 0
1600 1434 -1599 0
-1601 -1433 0
-1601 1600 0
1601 1433 -1600 0
-1602 630 0
-1602 631 0
1602 -630 -631 0
-1603 1601 0
-1603 -1602 0
1603 -1601 1602 0
-1604 632 0
-1604 633 0
1604 -632 -633 0
-1605 1603 0
-1605 -1604 0
1605 -1603 1604 0
-1606 -1432 0
-1606 1605 0
1606 1432 -1605 0
-1607 636 0
-1607 637 0
1607 -636 -637 0
-1608 1606 0
-1608 -1607 0
1608 -1606 1607 0
-1609 638 0
-1609 639 0
1609 -638 -639 0
-1610 1608 0
-1610 -1609 0
1610 -1608 1609 0
-1611 640 0
-1611 641 0
1611 -640 -641 0
-1612 1610 0
-1612 -1611 0
1612 -1610 1611 0
-1613 -1431 0
-1613 1612 0
1613 1431 -1612 0
-1614 644 0
-1614 645 0
1614 -644 -645 0
-1615 1613 0
-1615 -1614 0
1615 -1613 1614 0
-1616 -1430 0
-1616 1615 0
1616 1430 -1615 0
-1617 648 0
-1617 649 0
1617 -648 -649 0
-1618 1616 0
-1618 -1617 0
1618 -1616 1617 0
-1619 650 0
-1619 651 0
1619 -650 -651 0
-1620 1618 0
-1620 -1619 0
1620 -1618 1619 0
-1621 652 0
-1621 653 0
1621 -652 -653 0
-1622 1620 0
-1622 -1621 0
1622 -1620 1621 0
-1623 -1429 0
-1623 1622 0
1623 1429 -1622 0
-1624 -1428 0
-1624 1623 0
1624 1428 -1623 0
-1625 658 0
-1625 659 0
1625 -658 -659 0
-1626 1624 0
-1626 -1625 0
1626 -1624 1625 0
-1627 -1427 0
-1627 1626 0
1627 1427 -1626 0
-1628 662 0
-1628 663 0
1628 -662 -663 0
-1629 1627 0
-1629 -1628 0
1629 -1627 1628 0
-1630 664 0
-1630 665 0
1630 -664 -665 0
-1631 1629 0
-1631 -1630 0
1631 -1629 1630 0
-1632 666 0
-1632 667 0
1632 -666 -667 0
-1633 1631 0
-1633 -1632 0
1633 -1631 1632 0
-1634 668 0
-1634 669 0
1634 -668 -669 0
-1635 1633 0
-1635 -1634 0
1635 -1633 1634 0
-1636 -1426 0
-1636 1635 0
1636 1426 -1635 0
-1637 -1425 0
-1637 1636 0
1637 1425 -1636 0
-1638 -1424 0
-1638 1637 0
1638 1424 -1637 0
-1639 676 0
-1639 677 0
1639 -676 -677 0
-1640 1638 0
-1640 -1639 0
1640 -1638 1639 0
-1641 678 0
-1641 679 0
1641 -678 -679 0
-1642 1640 0
-1642 -1641 0
1642 -1640 1641 0
-1643 680 0
-1643 681 0
1643 -680 -681 0
-1644 1642 0
-1644 -1643 0
1644 -1642 1643 0
-1645 682 0
-1645 683 0
1645 -682 -683 0
-1646 1644 0
-1646 -1645 0
1646 -1644 1645 0
-1647 684 0
-1647 685 0
1647 -684 -685 0
-1648 1646 0
-1648 -1647 0
1648 -1646 1647 0
-1649 686 0
-1649 687 0
1649 -686 -687 0
-1650 1648 0
-1650 -1649 0
1650 -1648 1649 0
-1651 -1423 0
-1651 1650 0
1651 1423 -1650 0
-1652 -1422 0
-1652 1651 0
1652 1422 -1651 0
-1653 692 0
-1653 693 0
1653 -692 -693 0
-1654 1652 0
-1654 -1653 0
1654 -1652 1653 0
-1655 694 0
-1655 695 0
1655 -694 -695 0
-1656 1654 0
-1656 -1655 0
1656 -1654 1655 0
-1657 696 0
-1657 697 0
1657 -696 -697 0
-1658 1656 0
-1658 -1657 0
1658 -1656 1657 0
-1659 -1421 0
-1659 1658 0
1659 1421 -1658 0
-1660 700 0
-1660 701 0
1660 -700 -701 0
-1661 1659 0
-1661 -1660 0
1661 -1659 1660 0
-1662 -1420 0
-1662 1661 0
1662 1420 -1661 0
-1663 704 0
-1663 705 0
1663 -704 -705 0
-1664 1662 0
-1664 -1663 0
1664 -1662 1663 0
-1665 706 0
-1665 707 0
1665 -706 -707 0
-1666 1664 0
-1666 -1665 0
1666 -1664 1665 0
-1667 -1419 0
-1667 1666 0
1667 1419 -1666 0
-1668 710 0
-1668 711 0
1668 -710 -711 0
-1669 1667 0
-1669 -1668 0
1669 -1667 1668 0
-1670 -1418 0
-1670 1669 0
1670 1418 -1669 0
-1671 714 0
-1671 715 0
1671 -714 -715 0
-1672 1670 0
-1672 -1671 0
1672 -1670 1671 0
-1673 716 0
-1673 717 0
1673 -716 -717 0
-1674 1672 0
-1674 -1673 0
1674 -1672 1673 0
-1675 -1417 0
-1675 1674 0
1675 1417 -1674 0
-1676 720 0
-1676 721 0
1676 -720 -721 0
-1677 1675 0
-1677 -1676 0
1677 -1675 1676 0
-1678 722 0
-1678 723 0
1678 -722 -723 0
-1679 1677 0
-1679 -1678 0
1679 -1677 1678 0
-1680 -1416 0
-1680 1679 0
1680 1416 -1679 0
-1681 726 0
-1681 727 0
1681 -726 -727 0
-1682 1680 0
-1682 -1681 0
1682 -1680 1681 0
-1683 -1415 0
-1683 1682 0
1683 1415 -1682 0
-1684 -1414 0
-1684 1683 0
1684 1414 -1683 0
-1685 -1413 0
-1685 1684 0
1685 1413 -1684 0
-1686 -1412 0
-1686 1685 0
1686 1412 -1685 0
-1687 736 0
-1687 737 0
1687 -736 -737 0
-1688 1686 0
-1688 -1687 0
1688 -1686 1687 0
-1689 738 0
-1689 739 0
1689 -738 -739 0
-1690 1688 0
-1690 -1689 0
1690 -1688 1689 0
-1691 -1411 0
-1691 1690 0
1691 1411 -1690 0
-1692 742 0
-1692 743 0
1692 -742 -743 0
-1693 1691 0
-1693 -1692 0
1693 -1691 1692 0
-1694 744 0
-1694 745 0
1694 -744 -745 0
-1695 1693 0
-1695 -1694 0
1695 -1693 1694 0
-1696 746 0
-1696 747 0
1696 -746 -747 0
-1697 1695 0
-1697 -1696 0
1697 -1695 1696 0
-1698 748 0
-1698 749 0
1698 -748 -749 0
-1699 1697 0
-1699 -1698 0
1699 -1697 1698 0
-1700 750 0
-1700 751 0
1700 -750 -751 0
-1701 1699 0
-1701 -1700 0
1701 -1699 1700 0
-1702 752 0
-1702 753 0
1702 -752 -753 0
-1703 1701 0
-1703 -1702 0
1703 -1701 1702 0
-1704 754 0
-1704 755 0
1704 -754 -755 0
-1705 1703 0
-1705 -1704 0
1705 -1703 1704 0
-1706 756 0
-1706 757 0
1706 -756 -757 0
-1707 1705 0
-1707 -1706 0
1707 -1705 1706 0
-1708 758 0
-1708 759 0
1708 -758 -759 0
-1709 1707 0
-1709 -1708 0
1709 -1707 1708 0
-1710 760 0
-1710 761 0
1710 -760 -761 0
-1711 1709 0
-1711 -1710 0
1711 -1709 1710 0
-1712 762 0
-1712 763 0
1712 -762 -763 0
-1713 1711 0
-1713 -1712 0
1713 -1711 1712 0
-1714 764 0
-1714 765 0
1714 -764 -765 0
-1715 1713 0
-1715 -1714 0
1715 -1713 1714 0
-1716 766 0
-1716 767 0
1716 -766 -767 0
-1717 1715 0
-1717 -1716 0
1717 -1715 1716 0
-1718 768 0
-1718 769 0
1718 -768 -769 0
-1719 1717 0
-1719 -1718 0
1719 -1717 1718 0
-1720 -1410 0
-1720 1719 0
1720 1410 -1719 0
-1721 -1409 0
-1721 1720 0
1721 1409 -1720 0
-1722 774 0
-1722 775 0
1722 -774 -775 0
-1723 1721 0
-1723 -1722 0
1723 -1721 1722 0
-1724 776 0
-1724 777 0
1724 -776 -777 0
-1725 1723 0
-1725 -1724 0
1725 -1723 1724 0
-1726 778 0
-1726 779 0
1726 -778 -779 0
-1727 1725 0
-1727 -1726 0
1727 -1725 1726 0
-1728 780 0
-1728 781 0
1728 -780 -781 0
-1729 1727 0
-1729 -1728 0
1729 -1727 1728 0
-1730 782 0
-1730 783 0
1730 -782 -783 0
-1731 1729 0
-1731 -1730 0
1731 -1729 1730 0
-1732 784 0
-1732 785 0
1732 -784 -785 0
-1733 1731 0
-1733 -1732 0
1733 -1731 1732 0
-1734 786 0
-1734 787 0
1734 -786 -787 0
-1735 1733 0
-1735 -1734 0
1735 -1733 1734 0
-1736 -1408 0
-1736 1735 0
1736 1408 -1735 0
-1737 790 0
-1737 791 0
1737 -790 -791 0
-1738 1736 0
-1738 -1737 0
1738 -1736 1737 0
-1739 -1407 0
-1739 1738 0
1739 1407 -1738 0
-1740 794 0
-1740 795 0
1740 -794 -795 0
-1741 1739 0
-1741 -1740 0
1741 -1739 1740 0
-1742 -1406 0
-1742 1741 0
1742 1406 -1741 0
-1743 -1405 0
-1743 1742 0
1743 1405 -1742 0
-1744 800 0
-1744 801 0
1744 -800 -801 0
-1745 1743 0
-1745 -1744 0
1745 -1743 1744 0
-1746 802 0
-1746 803 0
1746 -802 -803 0
-1747 1745 0
-1747 -1746 0
1747 -1745 1746 0
-1748 804 0
-1748 805 0
1748 -804 -805 0
-1749 1747 0
-1749 -1748 0
1749 -1747 1748 0
-1750 -1404 0
-1750 1749 0
1750 1404 -1749 0
-1751 -1403 0
-1751 1750 0
1751 1403 -1750 0
-1752 -1402 0
-1752 1751 0
1752 1402 -1751 0
-1753 812 0
-1753 813 0
1753 -812 -813 0
-1754 1752 0
-1754 -1753 0
1754 -1752 1753 0
-1755 -1401 0
-1755 1754 0
1755 1401 -1754 0
-1756 816 0
-1756 817 0
1756 -816 -817 0
-1757 1755 0
-1757 -1756 0
1757 -1755 1756 0
-1758 -1400 0
-1758 1757 0
1758 1400 -1757 0
-1759 -1399 0
-1759 1758 0
1759 1399 -1758 0
-1760 -1398 0
-1760 1759 0
1760 1398 -1759 0
-1761 -1397 0
-1761 1760 0
1761 1397 -1760 0
-1762 826 0
-1762 827 0
1762 -826 -827 0
-1763 1761 0
-1763 -1762 0
1763 -1761 1762 0
-1764 828 0
-1764 829 0
1764 -828 -829 0
-1765 1763 0
-1765 -1764 0
1765 -1763 1764 0
-1766 830 0
-1766 831 0
1766 -830 -831 0
-1767 1765 0
-1767 -1766 0
1767 -1765 1766 0
-1768 -1396 0
-1768 1767 0
1768 1396 -1767 0
-1769 834 0
-1769 835 0
1769 -834 -835 0
-1770 1768 0
-1770 -1769 0
1770 -1768 1769 0
-1771 836 0
-1771 837 0
1771 -836 -837 0
-1772 1770 0
-1772 -1771 0
1772 -1770 1771 0
-1773 -1395 0
-1773 1772 0
1773 1395 -1772 0
-1774 -1394 0
-1774 1773 0
1774 1394 -1773 0
-1775 -1393 0
-1775 1774 0
1775 1393 -1774 0
-1776 844 0
-1776 845 0
1776 -844 -845 0
-1777 1775 0
-1777 -1776 0
1777 -1775 1776 0
-1778 846 0
-1778 847 0
1778 -846 -847 0
-1779 1777 0
-1779 -1778 0
1779 -1777 1778 0
-1780 848 0
-1780 849 0
1780 -848 -849 0
-1781 1779 0
-1781 -1780 0
1781 -1779 1780 0
-1782 -1392 0
-1782 1781 0
1782 1392 -1781 0
-1783 852 0
-1783 853 0
1783 -852 -853 0
-1784 1782 0
-1784 -1783 0
1784 -1782 1783 0
-1785 854 0
-1785 855 0
1785 -854 -855 0
-1786 1784 0
-1786 -1785 0
1786 -1784 1785 0
-1787 856 0
-1787 857 0
1787 -856 -857 0
-1788 1786 0
-1788 -1787 0
1788 -1786 1787 0
-1789 858 0
-1789 859 0
1789 -858 -859 0
-1790 1788 0
-1790 -1789 0
1790 -1788 1789 0
-1791 860 0
-1791 861 0
1791 -860 -861 0
-1792 1790 0
-1792 -1791 0
1792 -1790 1791 0
-1793 -1391 0
-1793 1792 0
1793 1391 -1792 0
-1794 -1390 0
-1794 1793 0
1794 1390 -1793 0
-1795 -1389 0
-1795 1794 0
1795 1389 -1794 0
-1796 868 0
-1796 869 0
1796 -868 -869 0
-1797 1795 0
-1797 -1796 0
1797 -1795 1796 0
-1798 -1388 0
-1798 1797 0
1798 1388 -1797 0
-1799 -1387 0
-1799 1798 0
1799 1387 -1798 0
-1800 874 0
-1800 875 0
1800 -874 -875 0
-1801 1799 0
-1801 -1800 0
1801 -1799 1800 0
-1802 876 0
-1802 877 0
1802 -876 -877 0
-1803 1801 0
-1803 -1802 0
1803 -1801 1802 0
-1804 878 0
-1804 879 0
1804 -878 -879 0
-1805 1803 0
-1805 -1804 0
1805 -1803 1804 0
-1806 880 0
-1806 881 0
1806 -880 -881 0
-1807 1805 0
-1807 -1806 0
1807 -1805 1806 0
-1808 -1386 0
-1808 1807 0
1808 1386 -1807 0
-1809 884 0
-1809 885 0
1809 -884 -885 0
-1810 1808 0
-1810 -1809 0
1810 -1808 1809 0
-1811 -1385 0
-1811 1810 0
1811 1385 -1810 0
-1812 888 0
-1812 889 0
1812 -888 -889 0
-1813 1811 0
-1813 -1812 0
1813 -1811 1812 0
-1814 890 0
-1814 891 0
1814 -890 -891 0
-1815 1813 0
-1815 -1814 0
1815 -1813 1814 0
-1816 892 0
-1816 893 0
1816 -892 -893 0
-1817 1815 0
-1817 -1816 0
1817 -1815 1816 0
-1818 -1384 0
-1818 1817 0
1818 1384 -1817 0
-1819 -1383 0
-1819 1818 0
1819 1383 -1818 0
-1820 898 0
-1820 899 0
1820 -898 -899 0
-1821 1819 0
-1821 -1820 0
1821 -1819 1820 0
-1822 900 0
-1822 901 0
1822 -900 -901 0
-1823 1821 0
-1823 -1822 0
1823 -1821 1822 0
-1824 -1382 0
-1824 1823 0
1824 1382 -1823 0
-1825 904 0
-1825 905 0
1825 -904 -905 0
-1826 1824 0
-1826 -1825 0
1826 -1824 1825 0
-1827 906 0
-1827 907 0
1827 -906 -907 0
-1828 1826 0
-1828 -1827 0
1828 -1826 1827 0
-1829 908 0
-1829 909 0
1829 -908 -909 0
-1830 1828 0
-1830 -1829 0
1830 -1828 1829 0
-1831 910 0
-1831 911 0
1831 -910 -911 0
-1832 1830 0
-1832 -1831 0
1832 -1830 1831 0
-1833 912 0
-1833 913 0
1833 -912 -913 0
-1834 1832 0
-1834 -1833 0
1834 -1832 1833 0
-1835 -1381 0
-1835 1834 0
1835 1381 -1834 0
-1836 -1380 0
-1836 1835 0
1836 1380 -1835 0
-1837 918 0
-1837 919 0
1837 -918 -919 0
-1838 1836 0
-1838 -1837 0
1838 -1836 1837 0
-1839 -919 0
-1839 -1838 0
1839 919 1838 0
-1840 -1379 0
-1840 -1839 0
1840 1379 1839 0
-1840 0
